TaS2
&INPUTPH
    prefix = 'TaS2_cdw_phonons'
    outdir   = '/fastscratch/tsievers/TaS2_cdw_phonons_180/'

    fildyn   = '/fastscratch/tsievers/TaS2_cdw_phonons_180/TaS2_cdw.dyn'
    fildvscf  = 'TaS2_cdw.dvscf'

    ldisp    = .true.
    nq1      = 3
    nq2      = 3
    nq3      = 1


    tr2_ph = 1e-21
/
