&inputph
   prefix='si_ph_bench_nk_28_n_procs_28_4',
   outdir   = '/fastscratch/tsievers/QE_TMP_DIR/'
   tr2_ph   = 1.0e-15
   amass(1) = 28.0855
   ldisp    = .true.
   nq1      = 6
   nq2      = 6
   nq3      = 6
   fildyn   = 'temp_out_files/si_ph_bench_nk_28_n_procs_28_4.dyn'
/
