&inputph
   prefix='si_ph',
   outdir='outdir/'
   tr2_ph   = 1.0e-15
   amass(1) = 28.0855
   ldisp    = .true.
   nq1      = 6
   nq2      = 6
   nq3      = 6
   fildyn   = 'outdir/si_ph.dyn'
/
