TaS2
&INPUTPH
    prefix = 'TaS2_cdw_phonons'
    outdir   = '/fastscratch/tsievers/TaS2_cdw_phonons_Gamma_180/'

    fildyn   = '/fastscratch/tsievers/TaS2_cdw_phonons_Gamma_180/TaS2_cdw.dyn'
    fildvscf  = 'TaS2_cdw.dvscf'

    tr2_ph = 1e-21
/
0.000   0.000   0.000 !Gamma
