&inputph
   prefix='si_ph_bench_poolsize_2_n_procs_32_0',
   outdir   = '/fastscratch/tsievers/QE_TMP_DIR/'
   tr2_ph   = 1.0e-15
   amass(1) = 28.0855
   ldisp    = .true.
   nq1      = 6
   nq2      = 6
   nq3      = 6
   fildyn   = '/fastscratch/tsievers/QE_TMP_DIR/si_ph_bench_poolsize_2_n_procs_32_0.dyn'
/
