&input
   fildyn   = '{{ fildyn }}'
   flfrc  = '{{ flfrc }}'
/
