&control
   calculation = 'scf'
   prefix='si_ph_bench_poolsize_2_n_procs_80_5',
   tprnfor     = .true.
   pseudo_dir  = './pseudos/'
   outdir='/fastscratch/tsievers/QE_TMP_DIR/'
/
&system
   ibrav   = 2
   A       = 5.392265397149829
   nat     = 2
   ntyp    = 1
   ecutwfc = 70.0
/
&electrons
   conv_thr = 1.0e-10
/
ATOMIC_SPECIES
   Si   28.0855   Si.nc.UPF
ATOMIC_POSITIONS {crystal}
   Si   0.00 0.00 0.00
   Si   0.25 0.25 0.25
K_POINTS {automatic}
6 6 6 1 1 1