&CONTROL
    outdir = '/fastscratch/tsievers/QE_TMP_DIR'
    prefix = 'TaS2_cdw_bench_poolsize_24_n_procs_96_2'

    pseudo_dir = './pseudos'
/
&SYSTEM
    ibrav = 4
    ntyp = 2
    nat = 27

    a = 10.160463438
    c = 15

    ecutwfc = 100

    occupations = 'smearing'
    smearing = 'fermi-dirac'
    degauss = 0.005
/
&ELECTRONS
    conv_thr = 1e-15
/

ATOMIC_SPECIES
Ta 180.94788 Ta.pbe-hgh.UPF
S   32.065    S.pbe-hgh.UPF

ATOMIC_POSITIONS crystal
Ta  0.775999250  0.551998499  0.500000000
Ta  0.448001501  0.224000750  0.500000000
Ta  0.775999250  0.224000750  0.500000000
Ta  0.448065852  0.896131704  0.500000000
Ta  0.103868296  0.551934148  0.500000000
Ta  0.448065852  0.551934148  0.500000000
Ta  0.785464162  0.892732081  0.500000000
Ta  0.107267919  0.892732081  0.500000000
Ta  0.107267919  0.214535838  0.500000000
S   0.555291412  0.777645706  0.396447877
S   0.555291412  0.777645706  0.603552123
S   0.222354294  0.777645706  0.396447877
S   0.222354294  0.777645706  0.603552123
S   0.222354294  0.444708588  0.396447877
S   0.222354294  0.444708588  0.603552123
S   0.887743737  0.443871868  0.392333204
S   0.887743737  0.443871868  0.607666796
S   0.556128132  0.443871868  0.392333204
S   0.556128132  0.443871868  0.607666796
S   0.556128132  0.112256263  0.392333204
S   0.556128132  0.112256263  0.607666796
S   0.887292299  0.774584598  0.393700428
S   0.887292299  0.774584598  0.606299572
S   0.225415402  0.112707701  0.393700428
S   0.225415402  0.112707701  0.606299572
S   0.887292299  0.112707701  0.393700428
S   0.887292299  0.112707701  0.606299572

K_POINTS automatic
12 12 1 0 0 0