&CONTROL
    prefix='TaS2_bench_nprocs_40'
    outdir = '/fastscratch/tsievers/QE_TMP_DIR/'
    pseudo_dir = './pseudos/',
/
&SYSTEM
    ibrav = 4
    ntyp = 2
    nat = 3

    a = 3.34
    c = 15.0

    assume_isolated = '2D'

    ecutwfc = 50.0
    ecutrho = 400.0

    occupations = 'smearing'
    smearing = 'marzari-vanderbilt'
    degauss = 0.019
/
&ELECTRONS
    conv_thr = 1e-18
/

ATOMIC_SPECIES
Ta 180.95 Ta_pbe_v1.uspp.F.UPF
S   32.06  s_pbe_v1.4.uspp.F.UPF

ATOMIC_POSITIONS crystal
S   0.3333333333  0.6666666667  0.1042246576
Ta  0.0000000000  0.0000000000  0.0000000000
S   0.3333333333  0.6666666667 -0.1042246576

K_POINTS automatic
12 12 1 0 0 0
